100 65910

 146 270
831 632
628 906
113 848
763 400
476 182
763 991
303 618
971 729
825 205
118 582
813 556
161 841
401 813
198 228
260 696
660 619
752 596
47 850
987 250
399 875
710 441
559 533
78 196
124 690
75 929
871 987
137 519
602 70
400 639
837 399
505 978
500 672
573 760
138 203
50 148
771 472
973 655
619 944
625 199
862 917
254 426
630 666
710 492
849 888
877 896
563 142
757 313
915 165
426 314
547 21
302 82
922 581
581 131
349 599
832 730
933 933
980 984
49 305
917 915
74 371
704 857
261 853
356 384
582 908
602 445
260 425
638 161
743 178
295 629
931 708
641 895
792 490
313 327
612 598
838 289
809 593
182 664
686 573
828 573
364 354
188 28
569 954
543 43
596 681
664 423
985 598
548 177
725 529
926 610
408 966
876 494
618 198
414 610
342 577
220 842
903 853
163 517
951 514
220 22
